1147434
61,55,17,40,68,74,5,48,12,13,38,91,72,77,78,28,39,93,25,16,18,58,89,33,70,23,11,50,24,94,46,0,47,37,49,34,96,41,98,79,36,73,69,56,32,8,19,20,95,29,76,9,92,62,67,75,14,81,66,26,1,63,4,2,84,88,7,52,90,43,54,71,35,87,82,60,57,15,44,85,80,3,65,6,83,21,42,51,64,53,97,27,45,10,22,86,31,59,30,61